NAME : pr439.opt.tour
COMMENT : Brian Pulfer optimization for file pr439.tsp
TYPE : TOUR
DIMENSION : 439
TOUR_SECTION
386
387
388
401
400
402
404
405
417
418
428
429
431
416
415
419
420
421
414
406
407
399
392
391
381
375
374
373
371
372
383
382
384
394
395
393
398
397
396
413
412
423
422
432
433
430
427
424
426
425
410
411
409
408
403
434
438
437
436
435
439
85
84
83
149
186
226
227
229
228
283
284
344
343
342
341
282
281
230
187
188
189
225
231
232
280
285
286
287
340
288
289
349
347
348
346
345
376
380
390
389
379
377
350
351
353
354
352
290
291
292
293
357
355
356
358
359
370
360
361
339
338
337
336
335
334
333
300
299
298
297
296
295
294
279
278
277
276
275
274
273
224
223
222
233
234
235
236
237
238
239
240
241
242
243
244
245
246
247
248
249
250
210
211
212
213
214
215
216
217
218
219
220
221
193
194
195
196
197
198
199
200
201
202
176
175
161
160
162
163
134
135
136
137
138
139
140
141
142
152
143
150
151
153
154
155
156
157
158
159
177
178
179
180
181
182
183
192
184
191
190
185
145
148
147
146
144
108
109
112
111
110
74
73
63
62
61
75
76
60
59
77
87
86
78
58
57
79
80
81
82
56
55
54
53
51
50
48
47
44
42
39
38
40
41
43
45
46
49
52
2
3
1
4
5
6
7
8
9
10
11
12
13
14
15
16
17
37
36
35
34
33
32
31
30
29
28
27
26
64
25
23
24
22
21
20
18
19
67
66
65
68
69
70
91
90
89
71
72
88
107
106
105
104
102
92
93
94
120
117
115
103
114
113
116
118
119
121
122
124
126
127
129
125
123
101
100
95
96
97
98
99
128
130
131
132
133
167
165
164
166
169
168
170
171
172
173
174
204
203
205
206
207
208
209
251
253
252
255
254
316
256
257
258
259
260
261
262
263
264
265
266
267
268
269
270
271
272
301
302
303
304
305
306
307
308
309
310
311
312
313
314
315
317
318
319
320
321
322
323
324
325
326
327
328
329
331
330
332
366
365
364
363
362
369
368
367
378
385
-1
EOF